NAME: instance_1729
TYPE: TSP
DIMENSION: 20
EDGE_WEIGHT_TYPE: EUC_2D
NODE_COORD_SECTION
0 96.29 86.50
1 53.85 0.66
2 18.63 76.60
3 88.03 61.32
4 5.54 48.44
5 28.52 50.13
6 93.12 20.63
7 9.19 2.90
8 40.94 55.83
9 96.17 15.39
10 47.31 30.68
11 44.24 77.14
12 95.06 66.48
13 58.21 86.16
14 23.66 25.97
15 91.00 9.90
16 22.89 21.45
17 40.08 4.50
18 72.86 68.96
19 24.48 48.50
EOF
